p cnf 965 2478
51 -698 -1 0
-51 698 0
-51 1 0
52 -51 -3 0
-52 51 0
-52 3 0
53 -699 -700 0
-53 699 0
-53 700 0
54 -53 -701 0
-54 53 0
-54 701 0
55 -702 -703 0
-55 702 0
-55 703 0
56 -7 -701 0
-56 7 0
-56 701 0
57 -56 -8 0
-57 56 0
-57 8 0
58 -704 -55 0
-58 704 0
-58 55 0
59 -705 -4 0
-59 705 0
-59 4 0
60 -59 -706 0
-60 59 0
-60 706 0
61 -707 -58 0
-61 707 0
-61 58 0
62 -708 -11 0
-62 708 0
-62 11 0
63 -62 -13 0
-63 62 0
-63 13 0
64 -709 -61 0
-64 709 0
-64 61 0
65 -710 -711 0
-65 710 0
-65 711 0
66 -65 -712 0
-66 65 0
-66 712 0
67 -713 -64 0
-67 713 0
-67 64 0
68 -17 -699 0
-68 17 0
-68 699 0
69 -68 -18 0
-69 68 0
-69 18 0
70 -714 -67 0
-70 714 0
-70 67 0
71 -715 -716 0
-71 715 0
-71 716 0
72 -71 -712 0
-72 71 0
-72 712 0
73 -717 -70 0
-73 717 0
-73 70 0
74 -19 -14 0
-74 19 0
-74 14 0
75 -74 -21 0
-75 74 0
-75 21 0
76 -718 -73 0
-76 718 0
-76 73 0
77 -22 -11 0
-77 22 0
-77 11 0
78 -77 -4 0
-78 77 0
-78 4 0
79 -719 -76 0
-79 719 0
-79 76 0
80 -720 -721 0
-80 720 0
-80 721 0
81 -80 -722 0
-81 80 0
-81 722 0
82 -723 -79 0
-82 723 0
-82 79 0
83 -724 -725 0
-83 724 0
-83 725 0
84 -83 -26 0
-84 83 0
-84 26 0
85 -726 -82 0
-85 726 0
-85 82 0
86 -27 -4 0
-86 27 0
-86 4 0
87 -86 -727 0
-87 86 0
-87 727 0
88 -728 -85 0
-88 728 0
-88 85 0
89 -729 -730 0
-89 729 0
-89 730 0
90 -89 -722 0
-90 89 0
-90 722 0
91 -731 -88 0
-91 731 0
-91 88 0
92 -732 -733 0
-92 732 0
-92 733 0
93 -92 -729 0
-93 92 0
-93 729 0
94 -734 -91 0
-94 734 0
-94 91 0
95 -32 -735 0
-95 32 0
-95 735 0
96 -95 -24 0
-96 95 0
-96 24 0
97 -736 -94 0
-97 736 0
-97 94 0
98 -33 -721 0
-98 33 0
-98 721 0
99 -98 -737 0
-99 98 0
-99 737 0
100 -738 -97 0
-100 738 0
-100 97 0
101 -27 -711 0
-101 27 0
-101 711 0
102 -101 -35 0
-102 101 0
-102 35 0
103 -739 -100 0
-103 739 0
-103 100 0
104 -740 -708 0
-104 740 0
-104 708 0
105 -104 -741 0
-105 104 0
-105 741 0
106 -742 -103 0
-106 742 0
-106 103 0
107 -38 -721 0
-107 38 0
-107 721 0
108 -107 -743 0
-108 107 0
-108 743 0
109 -744 -106 0
-109 744 0
-109 106 0
110 -39 -735 0
-110 39 0
-110 735 0
111 -110 -4 0
-111 110 0
-111 4 0
112 -745 -109 0
-112 745 0
-112 109 0
113 -746 -708 0
-113 746 0
-113 708 0
114 -113 -3 0
-114 113 0
-114 3 0
115 -747 -112 0
-115 747 0
-115 112 0
116 -748 -15 0
-116 748 0
-116 15 0
117 -116 -6 0
-117 116 0
-117 6 0
118 -749 -115 0
-118 749 0
-118 115 0
119 -36 -32 0
-119 36 0
-119 32 0
120 -119 -750 0
-120 119 0
-120 750 0
121 -751 -118 0
-121 751 0
-121 118 0
122 -36 -21 0
-122 36 0
-122 21 0
123 -122 -706 0
-123 122 0
-123 706 0
124 -752 -121 0
-124 752 0
-124 121 0
125 -753 -23 0
-125 753 0
-125 23 0
126 -125 -26 0
-126 125 0
-126 26 0
127 -754 -124 0
-127 754 0
-127 124 0
128 -755 -732 0
-128 755 0
-128 732 0
129 -128 -743 0
-129 128 0
-129 743 0
130 -756 -127 0
-130 756 0
-130 127 0
131 -757 -758 0
-131 757 0
-131 758 0
132 -131 -759 0
-132 131 0
-132 759 0
133 -760 -130 0
-133 760 0
-133 130 0
134 -725 -711 0
-134 725 0
-134 711 0
135 -134 -7 0
-135 134 0
-135 7 0
136 -761 -133 0
-136 761 0
-136 133 0
137 -758 -698 0
-137 758 0
-137 698 0
138 -137 -34 0
-138 137 0
-138 34 0
139 -762 -136 0
-139 762 0
-139 136 0
140 -732 -724 0
-140 732 0
-140 724 0
141 -140 -45 0
-141 140 0
-141 45 0
142 -763 -139 0
-142 763 0
-142 139 0
143 -40 -737 0
-143 40 0
-143 737 0
144 -143 -706 0
-144 143 0
-144 706 0
145 -764 -142 0
-145 764 0
-145 142 0
146 -755 -40 0
-146 755 0
-146 40 0
147 -146 -753 0
-147 146 0
-147 753 0
148 -765 -145 0
-148 765 0
-148 145 0
149 -46 -33 0
-149 46 0
-149 33 0
150 -149 -766 0
-150 149 0
-150 766 0
151 -767 -148 0
-151 767 0
-151 148 0
152 -46 -2 0
-152 46 0
-152 2 0
153 -152 -768 0
-153 152 0
-153 768 0
154 -769 -151 0
-154 769 0
-154 151 0
155 -733 -698 0
-155 733 0
-155 698 0
156 -155 -28 0
-156 155 0
-156 28 0
157 -770 -154 0
-157 770 0
-157 154 0
158 -39 -715 0
-158 39 0
-158 715 0
159 -158 -757 0
-159 158 0
-159 757 0
160 -771 -157 0
-160 771 0
-160 157 0
161 -32 -708 0
-161 32 0
-161 708 0
162 -161 -700 0
-162 161 0
-162 700 0
163 -772 -160 0
-163 772 0
-163 160 0
164 -773 -13 0
-164 773 0
-164 13 0
165 -164 -700 0
-165 164 0
-165 700 0
166 -774 -163 0
-166 774 0
-166 163 0
167 -741 -701 0
-167 741 0
-167 701 0
168 -167 -18 0
-168 167 0
-168 18 0
169 -775 -166 0
-169 775 0
-169 166 0
170 -776 -4 0
-170 776 0
-170 4 0
171 -170 -34 0
-171 170 0
-171 34 0
172 -777 -169 0
-172 777 0
-172 169 0
173 -733 -24 0
-173 733 0
-173 24 0
174 -173 -16 0
-174 173 0
-174 16 0
175 -778 -172 0
-175 778 0
-175 172 0
176 -755 -24 0
-176 755 0
-176 24 0
177 -176 -698 0
-177 176 0
-177 698 0
178 -779 -175 0
-178 779 0
-178 175 0
179 -732 -22 0
-179 732 0
-179 22 0
180 -179 -766 0
-180 179 0
-180 766 0
181 -780 -178 0
-181 780 0
-181 178 0
182 -6 -698 0
-182 6 0
-182 698 0
183 -182 -781 0
-183 182 0
-183 781 0
184 -782 -181 0
-184 782 0
-184 181 0
185 -43 -42 0
-185 43 0
-185 42 0
186 -185 -26 0
-186 185 0
-186 26 0
187 -783 -184 0
-187 783 0
-187 184 0
188 -716 -12 0
-188 716 0
-188 12 0
189 -188 -26 0
-189 188 0
-189 26 0
190 -784 -187 0
-190 784 0
-190 187 0
191 -48 -22 0
-191 48 0
-191 22 0
192 -191 -757 0
-192 191 0
-192 757 0
193 -785 -190 0
-193 785 0
-193 190 0
194 -759 -27 0
-194 759 0
-194 27 0
195 -194 -701 0
-195 194 0
-195 701 0
196 -786 -193 0
-196 786 0
-196 193 0
197 -748 -708 0
-197 748 0
-197 708 0
198 -197 -36 0
-198 197 0
-198 36 0
199 -787 -196 0
-199 787 0
-199 196 0
200 -759 -34 0
-200 759 0
-200 34 0
201 -200 -49 0
-201 200 0
-201 49 0
202 -788 -199 0
-202 788 0
-202 199 0
203 -170 -8 0
-203 170 0
-203 8 0
204 -789 -202 0
-204 789 0
-204 202 0
205 -759 -19 0
-205 759 0
-205 19 0
206 -205 -729 0
-206 205 0
-206 729 0
207 -790 -204 0
-207 790 0
-207 204 0
208 -716 -791 0
-208 716 0
-208 791 0
209 -208 -20 0
-209 208 0
-209 20 0
210 -792 -207 0
-210 792 0
-210 207 0
211 -33 -791 0
-211 33 0
-211 791 0
212 -211 -750 0
-212 211 0
-212 750 0
213 -793 -210 0
-213 793 0
-213 210 0
214 -47 -35 0
-214 47 0
-214 35 0
215 -214 -6 0
-215 214 0
-215 6 0
216 -794 -213 0
-216 794 0
-216 213 0
217 -29 -791 0
-217 29 0
-217 791 0
218 -217 -795 0
-218 217 0
-218 795 0
219 -796 -216 0
-219 796 0
-219 216 0
220 -773 -733 0
-220 773 0
-220 733 0
221 -220 -30 0
-221 220 0
-221 30 0
222 -797 -219 0
-222 797 0
-222 219 0
223 -34 -30 0
-223 34 0
-223 30 0
224 -223 -706 0
-224 223 0
-224 706 0
225 -798 -222 0
-225 798 0
-225 222 0
226 -38 -748 0
-226 38 0
-226 748 0
227 -226 -706 0
-227 226 0
-227 706 0
228 -799 -225 0
-228 799 0
-228 225 0
229 -711 -705 0
-229 711 0
-229 705 0
230 -229 -17 0
-230 229 0
-230 17 0
231 -800 -228 0
-231 800 0
-231 228 0
232 -748 -801 0
-232 748 0
-232 801 0
233 -232 -768 0
-233 232 0
-233 768 0
234 -802 -231 0
-234 802 0
-234 231 0
235 -733 -801 0
-235 733 0
-235 801 0
236 -235 -753 0
-236 235 0
-236 753 0
237 -803 -234 0
-237 803 0
-237 234 0
238 -36 -804 0
-238 36 0
-238 804 0
239 -238 -35 0
-239 238 0
-239 35 0
240 -805 -237 0
-240 805 0
-240 237 0
241 -44 -715 0
-241 44 0
-241 715 0
242 -241 -34 0
-242 241 0
-242 34 0
243 -806 -240 0
-243 806 0
-243 240 0
244 -733 -25 0
-244 733 0
-244 25 0
245 -244 -700 0
-245 244 0
-245 700 0
246 -807 -243 0
-246 807 0
-246 243 0
247 -48 -3 0
-247 48 0
-247 3 0
248 -247 -766 0
-248 247 0
-248 766 0
249 -808 -246 0
-249 808 0
-249 246 0
250 -26 -791 0
-250 26 0
-250 791 0
251 -250 -18 0
-251 250 0
-251 18 0
252 -809 -249 0
-252 809 0
-252 249 0
253 -810 -5 0
-253 810 0
-253 5 0
254 -253 -811 0
-254 253 0
-254 811 0
255 -812 -252 0
-255 812 0
-255 252 0
256 -48 -700 0
-256 48 0
-256 700 0
257 -256 -730 0
-257 256 0
-257 730 0
258 -813 -255 0
-258 813 0
-258 255 0
259 -41 -776 0
-259 41 0
-259 776 0
260 -259 -701 0
-260 259 0
-260 701 0
261 -814 -258 0
-261 814 0
-261 258 0
262 -47 -759 0
-262 47 0
-262 759 0
263 -262 -16 0
-263 262 0
-263 16 0
264 -815 -261 0
-264 815 0
-264 261 0
265 -43 -758 0
-265 43 0
-265 758 0
266 -265 -49 0
-266 265 0
-266 49 0
267 -816 -264 0
-267 816 0
-267 264 0
268 -741 -724 0
-268 741 0
-268 724 0
269 -268 -701 0
-269 268 0
-269 701 0
270 -817 -267 0
-270 817 0
-270 267 0
271 -729 -698 0
-271 729 0
-271 698 0
272 -271 -41 0
-272 271 0
-272 41 0
273 -818 -270 0
-273 818 0
-273 270 0
274 -13 -700 0
-274 13 0
-274 700 0
275 -274 -819 0
-275 274 0
-275 819 0
276 -820 -273 0
-276 820 0
-276 273 0
277 -23 -2 0
-277 23 0
-277 2 0
278 -277 -750 0
-278 277 0
-278 750 0
279 -821 -276 0
-279 821 0
-279 276 0
280 -700 -2 0
-280 700 0
-280 2 0
281 -280 -49 0
-281 280 0
-281 49 0
282 -822 -279 0
-282 822 0
-282 279 0
283 -733 -9 0
-283 733 0
-283 9 0
284 -283 -768 0
-284 283 0
-284 768 0
285 -823 -282 0
-285 823 0
-285 282 0
286 -759 -42 0
-286 759 0
-286 42 0
287 -286 -41 0
-287 286 0
-287 41 0
288 -824 -285 0
-288 824 0
-288 285 0
289 -43 -733 0
-289 43 0
-289 733 0
290 -289 -753 0
-290 289 0
-290 753 0
291 -825 -288 0
-291 825 0
-291 288 0
292 -755 -791 0
-292 755 0
-292 791 0
293 -292 -49 0
-293 292 0
-293 49 0
294 -826 -291 0
-294 826 0
-294 291 0
295 -811 -827 0
-295 811 0
-295 827 0
296 -295 -49 0
-296 295 0
-296 49 0
297 -828 -294 0
-297 828 0
-297 294 0
298 -16 -827 0
-298 16 0
-298 827 0
299 -298 -10 0
-299 298 0
-299 10 0
300 -829 -297 0
-300 829 0
-300 297 0
301 -28 -705 0
-301 28 0
-301 705 0
302 -301 -38 0
-302 301 0
-302 38 0
303 -830 -300 0
-303 830 0
-303 300 0
304 -795 -44 0
-304 795 0
-304 44 0
305 -304 -17 0
-305 304 0
-305 17 0
306 -831 -303 0
-306 831 0
-306 303 0
307 -38 -26 0
-307 38 0
-307 26 0
308 -307 -17 0
-308 307 0
-308 17 0
309 -832 -306 0
-309 832 0
-309 306 0
310 -29 -15 0
-310 29 0
-310 15 0
311 -310 -6 0
-311 310 0
-311 6 0
312 -833 -309 0
-312 833 0
-312 309 0
313 -46 -14 0
-313 46 0
-313 14 0
314 -313 -710 0
-314 313 0
-314 710 0
315 -834 -312 0
-315 834 0
-315 312 0
316 -44 -720 0
-316 44 0
-316 720 0
317 -316 -45 0
-317 316 0
-317 45 0
318 -835 -315 0
-318 835 0
-318 315 0
319 -31 -715 0
-319 31 0
-319 715 0
320 -319 -724 0
-320 319 0
-320 724 0
321 -836 -318 0
-321 836 0
-321 318 0
322 -773 -14 0
-322 773 0
-322 14 0
323 -322 -49 0
-323 322 0
-323 49 0
324 -837 -321 0
-324 837 0
-324 321 0
325 -223 -701 0
-325 223 0
-325 701 0
326 -838 -324 0
-326 838 0
-326 324 0
327 -25 -700 0
-327 25 0
-327 700 0
328 -327 -9 0
-328 327 0
-328 9 0
329 -839 -326 0
-329 839 0
-329 326 0
330 -241 -7 0
-330 241 0
-330 7 0
331 -840 -329 0
-331 840 0
-331 329 0
332 -31 -711 0
-332 31 0
-332 711 0
333 -332 -841 0
-333 332 0
-333 841 0
334 -842 -331 0
-334 842 0
-334 331 0
335 -14 -791 0
-335 14 0
-335 791 0
336 -335 -701 0
-336 335 0
-336 701 0
337 -843 -334 0
-337 843 0
-337 334 0
338 -50 -26 0
-338 50 0
-338 26 0
339 -338 -737 0
-339 338 0
-339 737 0
340 -844 -337 0
-340 844 0
-340 337 0
341 -23 -11 0
-341 23 0
-341 11 0
342 -341 -29 0
-342 341 0
-342 29 0
343 -845 -340 0
-343 845 0
-343 340 0
344 -706 -3 0
-344 706 0
-344 3 0
345 -344 -49 0
-345 344 0
-345 49 0
346 -846 -343 0
-346 846 0
-346 343 0
347 -15 -14 0
-347 15 0
-347 14 0
348 -347 -781 0
-348 347 0
-348 781 0
349 -847 -346 0
-349 847 0
-349 346 0
350 -715 -708 0
-350 715 0
-350 708 0
351 -350 -819 0
-351 350 0
-351 819 0
352 -848 -349 0
-352 848 0
-352 349 0
353 -700 -3 0
-353 700 0
-353 3 0
354 -353 -737 0
-354 353 0
-354 737 0
355 -849 -352 0
-355 849 0
-355 352 0
356 -746 -741 0
-356 746 0
-356 741 0
357 -356 -26 0
-357 356 0
-357 26 0
358 -850 -355 0
-358 850 0
-358 355 0
359 -758 -33 0
-359 758 0
-359 33 0
360 -359 -8 0
-360 359 0
-360 8 0
361 -851 -358 0
-361 851 0
-361 358 0
362 -733 -710 0
-362 733 0
-362 710 0
363 -362 -50 0
-363 362 0
-363 50 0
364 -852 -361 0
-364 852 0
-364 361 0
365 -711 -791 0
-365 711 0
-365 791 0
366 -365 -735 0
-366 365 0
-366 735 0
367 -853 -364 0
-367 853 0
-367 364 0
368 -746 -750 0
-368 746 0
-368 750 0
369 -368 -766 0
-369 368 0
-369 766 0
370 -854 -367 0
-370 854 0
-370 367 0
371 -29 -705 0
-371 29 0
-371 705 0
372 -371 -6 0
-372 371 0
-372 6 0
373 -855 -370 0
-373 855 0
-373 370 0
374 -721 -711 0
-374 721 0
-374 711 0
375 -374 -45 0
-375 374 0
-375 45 0
376 -856 -373 0
-376 856 0
-376 373 0
377 -773 -711 0
-377 773 0
-377 711 0
378 -377 -30 0
-378 377 0
-378 30 0
379 -857 -376 0
-379 857 0
-379 376 0
380 -725 -715 0
-380 725 0
-380 715 0
381 -380 -781 0
-381 380 0
-381 781 0
382 -858 -379 0
-382 858 0
-382 379 0
383 -746 -716 0
-383 746 0
-383 716 0
384 -383 -36 0
-384 383 0
-384 36 0
385 -859 -382 0
-385 859 0
-385 382 0
386 -30 -22 0
-386 30 0
-386 22 0
387 -386 -36 0
-387 386 0
-387 36 0
388 -860 -385 0
-388 860 0
-388 385 0
389 -36 -827 0
-389 36 0
-389 827 0
390 -389 -766 0
-390 389 0
-390 766 0
391 -861 -388 0
-391 861 0
-391 388 0
392 -50 -737 0
-392 50 0
-392 737 0
393 -392 -727 0
-393 392 0
-393 727 0
394 -862 -391 0
-394 862 0
-394 391 0
395 -43 -16 0
-395 43 0
-395 16 0
396 -395 -2 0
-396 395 0
-396 2 0
397 -863 -394 0
-397 863 0
-397 394 0
398 -715 -791 0
-398 715 0
-398 791 0
399 -398 -2 0
-399 398 0
-399 2 0
400 -864 -397 0
-400 864 0
-400 397 0
401 -46 -20 0
-401 46 0
-401 20 0
402 -401 -708 0
-402 401 0
-402 708 0
403 -865 -400 0
-403 865 0
-403 400 0
404 -758 -748 0
-404 758 0
-404 748 0
405 -404 -1 0
-405 404 0
-405 1 0
406 -866 -403 0
-406 866 0
-406 403 0
407 -759 -791 0
-407 759 0
-407 791 0
408 -407 -743 0
-408 407 0
-408 743 0
409 -867 -406 0
-409 867 0
-409 406 0
410 -773 -811 0
-410 773 0
-410 811 0
411 -410 -841 0
-411 410 0
-411 841 0
412 -868 -409 0
-412 868 0
-412 409 0
413 -48 -42 0
-413 48 0
-413 42 0
414 -413 -1 0
-414 413 0
-414 1 0
415 -869 -412 0
-415 869 0
-415 412 0
416 -37 -710 0
-416 37 0
-416 710 0
417 -416 -766 0
-417 416 0
-417 766 0
418 -870 -415 0
-418 870 0
-418 415 0
419 -776 -21 0
-419 776 0
-419 21 0
420 -419 -722 0
-420 419 0
-420 722 0
421 -871 -418 0
-421 871 0
-421 418 0
422 -735 -801 0
-422 735 0
-422 801 0
423 -422 -743 0
-423 422 0
-423 743 0
424 -872 -421 0
-424 872 0
-424 421 0
425 -31 -16 0
-425 31 0
-425 16 0
426 -425 -701 0
-426 425 0
-426 701 0
427 -873 -424 0
-427 873 0
-427 424 0
428 -753 -715 0
-428 753 0
-428 715 0
429 -428 -737 0
-429 428 0
-429 737 0
430 -874 -427 0
-430 874 0
-430 427 0
431 -12 -7 0
-431 12 0
-431 7 0
432 -431 -18 0
-432 431 0
-432 18 0
433 -875 -430 0
-433 875 0
-433 430 0
434 -725 -13 0
-434 725 0
-434 13 0
435 -434 -841 0
-435 434 0
-435 841 0
436 -876 -433 0
-436 876 0
-436 433 0
437 -39 -732 0
-437 39 0
-437 732 0
438 -437 -729 0
-438 437 0
-438 729 0
439 -877 -436 0
-439 877 0
-439 436 0
440 -14 -4 0
-440 14 0
-440 4 0
441 -440 -7 0
-441 440 0
-441 7 0
442 -878 -439 0
-442 878 0
-442 439 0
443 -48 -753 0
-443 48 0
-443 753 0
444 -443 -741 0
-444 443 0
-444 741 0
445 -879 -442 0
-445 879 0
-445 442 0
446 -735 -11 0
-446 735 0
-446 11 0
447 -446 -700 0
-447 446 0
-447 700 0
448 -880 -445 0
-448 880 0
-448 445 0
449 -27 -25 0
-449 27 0
-449 25 0
450 -449 -722 0
-450 449 0
-450 722 0
451 -881 -448 0
-451 881 0
-451 448 0
452 -21 -1 0
-452 21 0
-452 1 0
453 -452 -8 0
-453 452 0
-453 8 0
454 -882 -451 0
-454 882 0
-454 451 0
455 -48 -712 0
-455 48 0
-455 712 0
456 -455 -737 0
-456 455 0
-456 737 0
457 -883 -454 0
-457 883 0
-457 454 0
458 -699 -827 0
-458 699 0
-458 827 0
459 -458 -6 0
-459 458 0
-459 6 0
460 -884 -457 0
-460 884 0
-460 457 0
461 -724 -2 0
-461 724 0
-461 2 0
462 -461 -743 0
-462 461 0
-462 743 0
463 -885 -460 0
-463 885 0
-463 460 0
464 -759 -700 0
-464 759 0
-464 700 0
465 -464 -7 0
-465 464 0
-465 7 0
466 -886 -463 0
-466 886 0
-466 463 0
467 -32 -21 0
-467 32 0
-467 21 0
468 -467 -5 0
-468 467 0
-468 5 0
469 -887 -466 0
-469 887 0
-469 466 0
470 -31 -27 0
-470 31 0
-470 27 0
471 -470 -746 0
-471 470 0
-471 746 0
472 -888 -469 0
-472 888 0
-472 469 0
473 -39 -22 0
-473 39 0
-473 22 0
474 -473 -13 0
-474 473 0
-474 13 0
475 -889 -472 0
-475 889 0
-475 472 0
476 -47 -15 0
-476 47 0
-476 15 0
477 -476 -9 0
-477 476 0
-477 9 0
478 -890 -475 0
-478 890 0
-478 475 0
479 -716 -801 0
-479 716 0
-479 801 0
480 -479 -724 0
-480 479 0
-480 724 0
481 -891 -478 0
-481 891 0
-481 478 0
482 -46 -11 0
-482 46 0
-482 11 0
483 -482 -746 0
-483 482 0
-483 746 0
484 -892 -481 0
-484 892 0
-484 481 0
485 -893 -4 0
-485 893 0
-485 4 0
486 -485 -737 0
-486 485 0
-486 737 0
487 -894 -484 0
-487 894 0
-487 484 0
488 -49 -27 0
-488 49 0
-488 27 0
489 -488 -781 0
-489 488 0
-489 781 0
490 -895 -487 0
-490 895 0
-490 487 0
491 -24 -9 0
-491 24 0
-491 9 0
492 -491 -727 0
-492 491 0
-492 727 0
493 -896 -490 0
-493 896 0
-493 490 0
494 -893 -791 0
-494 893 0
-494 791 0
495 -494 -19 0
-495 494 0
-495 19 0
496 -897 -493 0
-496 897 0
-496 493 0
497 -759 -712 0
-497 759 0
-497 712 0
498 -497 -699 0
-498 497 0
-498 699 0
499 -898 -496 0
-499 898 0
-499 496 0
500 -47 -32 0
-500 47 0
-500 32 0
501 -500 -17 0
-501 500 0
-501 17 0
502 -899 -499 0
-502 899 0
-502 499 0
503 -773 -776 0
-503 773 0
-503 776 0
504 -503 -2 0
-504 503 0
-504 2 0
505 -900 -502 0
-505 900 0
-505 502 0
506 -811 -32 0
-506 811 0
-506 32 0
507 -506 -737 0
-507 506 0
-507 737 0
508 -901 -505 0
-508 901 0
-508 505 0
509 -22 -12 0
-509 22 0
-509 12 0
510 -509 -7 0
-510 509 0
-510 7 0
511 -902 -508 0
-511 902 0
-511 508 0
512 -711 -12 0
-512 711 0
-512 12 0
513 -512 -746 0
-513 512 0
-513 746 0
514 -903 -511 0
-514 903 0
-514 511 0
515 -768 -712 0
-515 768 0
-515 712 0
516 -515 -45 0
-516 515 0
-516 45 0
517 -904 -514 0
-517 904 0
-517 514 0
518 -32 -13 0
-518 32 0
-518 13 0
519 -518 -17 0
-519 518 0
-519 17 0
520 -905 -517 0
-520 905 0
-520 517 0
521 -50 -28 0
-521 50 0
-521 28 0
522 -521 -17 0
-522 521 0
-522 17 0
523 -906 -520 0
-523 906 0
-523 520 0
524 -50 -20 0
-524 50 0
-524 20 0
525 -524 -701 0
-525 524 0
-525 701 0
526 -907 -523 0
-526 907 0
-526 523 0
527 -841 -720 0
-527 841 0
-527 720 0
528 -527 -766 0
-528 527 0
-528 766 0
529 -908 -526 0
-529 908 0
-529 526 0
530 -841 -804 0
-530 841 0
-530 804 0
531 -530 -10 0
-531 530 0
-531 10 0
532 -909 -529 0
-532 909 0
-532 529 0
533 -757 -14 0
-533 757 0
-533 14 0
534 -533 -740 0
-534 533 0
-534 740 0
535 -910 -532 0
-535 910 0
-535 532 0
536 -42 -811 0
-536 42 0
-536 811 0
537 -536 -781 0
-537 536 0
-537 781 0
538 -911 -535 0
-538 911 0
-538 535 0
539 -20 -705 0
-539 20 0
-539 705 0
540 -539 -21 0
-540 539 0
-540 21 0
541 -912 -538 0
-541 912 0
-541 538 0
542 -503 -766 0
-542 503 0
-542 766 0
543 -913 -541 0
-543 913 0
-543 541 0
544 -32 -19 0
-544 32 0
-544 19 0
545 -544 -5 0
-545 544 0
-545 5 0
546 -914 -543 0
-546 914 0
-546 543 0
547 -48 -711 0
-547 48 0
-547 711 0
548 -547 -50 0
-548 547 0
-548 50 0
549 -915 -546 0
-549 915 0
-549 546 0
550 -801 -2 0
-550 801 0
-550 2 0
551 -550 -741 0
-551 550 0
-551 741 0
552 -916 -549 0
-552 916 0
-552 549 0
553 -46 -19 0
-553 46 0
-553 19 0
554 -553 -6 0
-554 553 0
-554 6 0
555 -917 -552 0
-555 917 0
-555 552 0
556 -44 -743 0
-556 44 0
-556 743 0
557 -556 -766 0
-557 556 0
-557 766 0
558 -918 -555 0
-558 918 0
-558 555 0
559 -773 -42 0
-559 773 0
-559 42 0
560 -559 -16 0
-560 559 0
-560 16 0
561 -919 -558 0
-561 919 0
-561 558 0
562 -13 -12 0
-562 13 0
-562 12 0
563 -562 -37 0
-563 562 0
-563 37 0
564 -920 -561 0
-564 920 0
-564 561 0
565 -893 -42 0
-565 893 0
-565 42 0
566 -565 -24 0
-566 565 0
-566 24 0
567 -921 -564 0
-567 921 0
-567 564 0
568 -757 -715 0
-568 757 0
-568 715 0
569 -568 -729 0
-569 568 0
-569 729 0
570 -922 -567 0
-570 922 0
-570 567 0
571 -759 -716 0
-571 759 0
-571 716 0
572 -571 -700 0
-572 571 0
-572 700 0
573 -923 -570 0
-573 923 0
-573 570 0
574 -725 -699 0
-574 725 0
-574 699 0
575 -574 -36 0
-575 574 0
-575 36 0
576 -924 -573 0
-576 924 0
-576 573 0
577 -746 -700 0
-577 746 0
-577 700 0
578 -577 -743 0
-578 577 0
-578 743 0
579 -925 -576 0
-579 925 0
-579 576 0
580 -732 -21 0
-580 732 0
-580 21 0
581 -580 -740 0
-581 580 0
-581 740 0
582 -926 -579 0
-582 926 0
-582 579 0
583 -38 -716 0
-583 38 0
-583 716 0
584 -583 -743 0
-584 583 0
-584 743 0
585 -927 -582 0
-585 927 0
-585 582 0
586 -43 -5 0
-586 43 0
-586 5 0
587 -586 -819 0
-587 586 0
-587 819 0
588 -928 -585 0
-588 928 0
-588 585 0
589 -48 -31 0
-589 48 0
-589 31 0
590 -589 -740 0
-590 589 0
-590 740 0
591 -929 -588 0
-591 929 0
-591 588 0
592 -721 -1 0
-592 721 0
-592 1 0
593 -592 -30 0
-593 592 0
-593 30 0
594 -930 -591 0
-594 930 0
-594 591 0
595 -757 -16 0
-595 757 0
-595 16 0
596 -595 -45 0
-596 595 0
-596 45 0
597 -931 -594 0
-597 931 0
-597 594 0
598 -708 -4 0
-598 708 0
-598 4 0
599 -598 -841 0
-599 598 0
-599 841 0
600 -932 -597 0
-600 932 0
-600 597 0
601 -35 -22 0
-601 35 0
-601 22 0
602 -601 -766 0
-602 601 0
-602 766 0
603 -933 -600 0
-603 933 0
-603 600 0
604 -33 -768 0
-604 33 0
-604 768 0
605 -604 -8 0
-605 604 0
-605 8 0
606 -934 -603 0
-606 934 0
-606 603 0
607 -755 -811 0
-607 755 0
-607 811 0
608 -607 -841 0
-608 607 0
-608 841 0
609 -935 -606 0
-609 935 0
-609 606 0
610 -25 -12 0
-610 25 0
-610 12 0
611 -610 -17 0
-611 610 0
-611 17 0
612 -936 -609 0
-612 936 0
-612 609 0
613 -46 -34 0
-613 46 0
-613 34 0
614 -613 -706 0
-614 613 0
-614 706 0
615 -937 -612 0
-615 937 0
-615 612 0
616 -27 -2 0
-616 27 0
-616 2 0
617 -616 -35 0
-617 616 0
-617 35 0
618 -938 -615 0
-618 938 0
-618 615 0
619 -795 -19 0
-619 795 0
-619 19 0
620 -619 -9 0
-620 619 0
-620 9 0
621 -939 -618 0
-621 939 0
-621 618 0
622 -45 -40 0
-622 45 0
-622 40 0
623 -622 -722 0
-623 622 0
-623 722 0
624 -940 -621 0
-624 940 0
-624 621 0
625 -46 -698 0
-625 46 0
-625 698 0
626 -625 -38 0
-626 625 0
-626 38 0
627 -941 -624 0
-627 941 0
-627 624 0
628 -735 -29 0
-628 735 0
-628 29 0
629 -628 -811 0
-629 628 0
-629 811 0
630 -942 -627 0
-630 942 0
-630 627 0
631 -755 -15 0
-631 755 0
-631 15 0
632 -631 -759 0
-632 631 0
-632 759 0
633 -943 -630 0
-633 943 0
-633 630 0
634 -841 -721 0
-634 841 0
-634 721 0
635 -634 -727 0
-635 634 0
-635 727 0
636 -944 -633 0
-636 944 0
-636 633 0
637 -34 -20 0
-637 34 0
-637 20 0
638 -637 -8 0
-638 637 0
-638 8 0
639 -945 -636 0
-639 945 0
-639 636 0
640 -732 -28 0
-640 732 0
-640 28 0
641 -640 -819 0
-641 640 0
-641 819 0
642 -946 -639 0
-642 946 0
-642 639 0
643 -39 -25 0
-643 39 0
-643 25 0
644 -643 -9 0
-644 643 0
-644 9 0
645 -947 -642 0
-645 947 0
-645 642 0
646 -741 -810 0
-646 741 0
-646 810 0
647 -646 -18 0
-647 646 0
-647 18 0
648 -948 -645 0
-648 948 0
-648 645 0
649 -735 -710 0
-649 735 0
-649 710 0
650 -649 -37 0
-650 649 0
-650 37 0
651 -949 -648 0
-651 949 0
-651 648 0
652 -759 -14 0
-652 759 0
-652 14 0
653 -652 -724 0
-653 652 0
-653 724 0
654 -950 -651 0
-654 950 0
-654 651 0
655 -48 -47 0
-655 48 0
-655 47 0
656 -655 -17 0
-656 655 0
-656 17 0
657 -951 -654 0
-657 951 0
-657 654 0
658 -755 -27 0
-658 755 0
-658 27 0
659 -658 -757 0
-659 658 0
-659 757 0
660 -952 -657 0
-660 952 0
-660 657 0
661 -804 -4 0
-661 804 0
-661 4 0
662 -661 -38 0
-662 661 0
-662 38 0
663 -953 -660 0
-663 953 0
-663 660 0
664 -527 -18 0
-664 527 0
-664 18 0
665 -954 -663 0
-665 954 0
-665 663 0
666 -30 -28 0
-666 30 0
-666 28 0
667 -666 -41 0
-667 666 0
-667 41 0
668 -955 -665 0
-668 955 0
-668 665 0
669 -30 -15 0
-669 30 0
-669 15 0
670 -669 -737 0
-670 669 0
-670 737 0
671 -956 -668 0
-671 956 0
-671 668 0
672 -708 -698 0
-672 708 0
-672 698 0
673 -672 -5 0
-673 672 0
-673 5 0
674 -957 -671 0
-674 957 0
-674 671 0
675 -735 -24 0
-675 735 0
-675 24 0
676 -675 -729 0
-676 675 0
-676 729 0
677 -958 -674 0
-677 958 0
-677 674 0
678 -732 -720 0
-678 732 0
-678 720 0
679 -678 -38 0
-679 678 0
-679 38 0
680 -959 -677 0
-680 959 0
-680 677 0
681 -841 -5 0
-681 841 0
-681 5 0
682 -681 -8 0
-682 681 0
-682 8 0
683 -960 -680 0
-683 960 0
-683 680 0
684 -304 -13 0
-684 304 0
-684 13 0
685 -961 -683 0
-685 961 0
-685 683 0
686 -759 -7 0
-686 759 0
-686 7 0
687 -686 -17 0
-687 686 0
-687 17 0
688 -962 -685 0
-688 962 0
-688 685 0
689 -40 -13 0
-689 40 0
-689 13 0
690 -689 -811 0
-690 689 0
-690 811 0
691 -963 -688 0
-691 963 0
-691 688 0
692 -43 -9 0
-692 43 0
-692 9 0
693 -692 -701 0
-693 692 0
-693 701 0
694 -964 -691 0
-694 964 0
-694 691 0
695 -773 -27 0
-695 773 0
-695 27 0
696 -695 -750 0
-696 695 0
-696 750 0
697 -965 -694 0
-697 965 0
-697 694 0
-698 -2 0
698 2 0
-699 -5 0
699 5 0
-700 -4 0
700 4 0
-701 -6 0
701 6 0
-702 -54 0
702 54 0
-703 -52 0
703 52 0
-704 -57 0
704 57 0
-705 -9 0
705 9 0
-706 -10 0
706 10 0
-707 -60 0
707 60 0
-708 -12 0
708 12 0
-709 -63 0
709 63 0
-710 -15 0
710 15 0
-711 -14 0
711 14 0
-712 -16 0
712 16 0
-713 -66 0
713 66 0
-714 -69 0
714 69 0
-715 -20 0
715 20 0
-716 -19 0
716 19 0
-717 -72 0
717 72 0
-718 -75 0
718 75 0
-719 -78 0
719 78 0
-720 -23 0
720 23 0
-721 -22 0
721 22 0
-722 -17 0
722 17 0
-723 -81 0
723 81 0
-724 -25 0
724 25 0
-725 -24 0
725 24 0
-726 -84 0
726 84 0
-727 -18 0
727 18 0
-728 -87 0
728 87 0
-729 -28 0
729 28 0
-730 -7 0
730 7 0
-731 -90 0
731 90 0
-732 -30 0
732 30 0
-733 -29 0
733 29 0
-734 -93 0
734 93 0
-735 -31 0
735 31 0
-736 -96 0
736 96 0
-737 -34 0
737 34 0
-738 -99 0
738 99 0
-739 -102 0
739 102 0
-740 -36 0
740 36 0
-741 -37 0
741 37 0
-742 -105 0
742 105 0
-743 -3 0
743 3 0
-744 -108 0
744 108 0
-745 -111 0
745 111 0
-746 -40 0
746 40 0
-747 -114 0
747 114 0
-748 -33 0
748 33 0
-749 -117 0
749 117 0
-750 -38 0
750 38 0
-751 -120 0
751 120 0
-752 -123 0
752 123 0
-753 -41 0
753 41 0
-754 -126 0
754 126 0
-755 -42 0
755 42 0
-756 -129 0
756 129 0
-757 -43 0
757 43 0
-758 -39 0
758 39 0
-759 -44 0
759 44 0
-760 -132 0
760 132 0
-761 -135 0
761 135 0
-762 -138 0
762 138 0
-763 -141 0
763 141 0
-764 -144 0
764 144 0
-765 -147 0
765 147 0
-766 -45 0
766 45 0
-767 -150 0
767 150 0
-768 -26 0
768 26 0
-769 -153 0
769 153 0
-770 -156 0
770 156 0
-771 -159 0
771 159 0
-772 -162 0
772 162 0
-773 -47 0
773 47 0
-774 -165 0
774 165 0
-775 -168 0
775 168 0
-776 -27 0
776 27 0
-777 -171 0
777 171 0
-778 -174 0
778 174 0
-779 -177 0
779 177 0
-780 -180 0
780 180 0
-781 -8 0
781 8 0
-782 -183 0
782 183 0
-783 -186 0
783 186 0
-784 -189 0
784 189 0
-785 -192 0
785 192 0
-786 -195 0
786 195 0
-787 -198 0
787 198 0
-788 -201 0
788 201 0
-789 -203 0
789 203 0
-790 -206 0
790 206 0
-791 -11 0
791 11 0
-792 -209 0
792 209 0
-793 -212 0
793 212 0
-794 -215 0
794 215 0
-795 -48 0
795 48 0
-796 -218 0
796 218 0
-797 -221 0
797 221 0
-798 -224 0
798 224 0
-799 -227 0
799 227 0
-800 -230 0
800 230 0
-801 -13 0
801 13 0
-802 -233 0
802 233 0
-803 -236 0
803 236 0
-804 -32 0
804 32 0
-805 -239 0
805 239 0
-806 -242 0
806 242 0
-807 -245 0
807 245 0
-808 -248 0
808 248 0
-809 -251 0
809 251 0
-810 -21 0
810 21 0
-811 -35 0
811 35 0
-812 -254 0
812 254 0
-813 -257 0
813 257 0
-814 -260 0
814 260 0
-815 -263 0
815 263 0
-816 -266 0
816 266 0
-817 -269 0
817 269 0
-818 -272 0
818 272 0
-819 -49 0
819 49 0
-820 -275 0
820 275 0
-821 -278 0
821 278 0
-822 -281 0
822 281 0
-823 -284 0
823 284 0
-824 -287 0
824 287 0
-825 -290 0
825 290 0
-826 -293 0
826 293 0
-827 -1 0
827 1 0
-828 -296 0
828 296 0
-829 -299 0
829 299 0
-830 -302 0
830 302 0
-831 -305 0
831 305 0
-832 -308 0
832 308 0
-833 -311 0
833 311 0
-834 -314 0
834 314 0
-835 -317 0
835 317 0
-836 -320 0
836 320 0
-837 -323 0
837 323 0
-838 -325 0
838 325 0
-839 -328 0
839 328 0
-840 -330 0
840 330 0
-841 -50 0
841 50 0
-842 -333 0
842 333 0
-843 -336 0
843 336 0
-844 -339 0
844 339 0
-845 -342 0
845 342 0
-846 -345 0
846 345 0
-847 -348 0
847 348 0
-848 -351 0
848 351 0
-849 -354 0
849 354 0
-850 -357 0
850 357 0
-851 -360 0
851 360 0
-852 -363 0
852 363 0
-853 -366 0
853 366 0
-854 -369 0
854 369 0
-855 -372 0
855 372 0
-856 -375 0
856 375 0
-857 -378 0
857 378 0
-858 -381 0
858 381 0
-859 -384 0
859 384 0
-860 -387 0
860 387 0
-861 -390 0
861 390 0
-862 -393 0
862 393 0
-863 -396 0
863 396 0
-864 -399 0
864 399 0
-865 -402 0
865 402 0
-866 -405 0
866 405 0
-867 -408 0
867 408 0
-868 -411 0
868 411 0
-869 -414 0
869 414 0
-870 -417 0
870 417 0
-871 -420 0
871 420 0
-872 -423 0
872 423 0
-873 -426 0
873 426 0
-874 -429 0
874 429 0
-875 -432 0
875 432 0
-876 -435 0
876 435 0
-877 -438 0
877 438 0
-878 -441 0
878 441 0
-879 -444 0
879 444 0
-880 -447 0
880 447 0
-881 -450 0
881 450 0
-882 -453 0
882 453 0
-883 -456 0
883 456 0
-884 -459 0
884 459 0
-885 -462 0
885 462 0
-886 -465 0
886 465 0
-887 -468 0
887 468 0
-888 -471 0
888 471 0
-889 -474 0
889 474 0
-890 -477 0
890 477 0
-891 -480 0
891 480 0
-892 -483 0
892 483 0
-893 -46 0
893 46 0
-894 -486 0
894 486 0
-895 -489 0
895 489 0
-896 -492 0
896 492 0
-897 -495 0
897 495 0
-898 -498 0
898 498 0
-899 -501 0
899 501 0
-900 -504 0
900 504 0
-901 -507 0
901 507 0
-902 -510 0
902 510 0
-903 -513 0
903 513 0
-904 -516 0
904 516 0
-905 -519 0
905 519 0
-906 -522 0
906 522 0
-907 -525 0
907 525 0
-908 -528 0
908 528 0
-909 -531 0
909 531 0
-910 -534 0
910 534 0
-911 -537 0
911 537 0
-912 -540 0
912 540 0
-913 -542 0
913 542 0
-914 -545 0
914 545 0
-915 -548 0
915 548 0
-916 -551 0
916 551 0
-917 -554 0
917 554 0
-918 -557 0
918 557 0
-919 -560 0
919 560 0
-920 -563 0
920 563 0
-921 -566 0
921 566 0
-922 -569 0
922 569 0
-923 -572 0
923 572 0
-924 -575 0
924 575 0
-925 -578 0
925 578 0
-926 -581 0
926 581 0
-927 -584 0
927 584 0
-928 -587 0
928 587 0
-929 -590 0
929 590 0
-930 -593 0
930 593 0
-931 -596 0
931 596 0
-932 -599 0
932 599 0
-933 -602 0
933 602 0
-934 -605 0
934 605 0
-935 -608 0
935 608 0
-936 -611 0
936 611 0
-937 -614 0
937 614 0
-938 -617 0
938 617 0
-939 -620 0
939 620 0
-940 -623 0
940 623 0
-941 -626 0
941 626 0
-942 -629 0
942 629 0
-943 -632 0
943 632 0
-944 -635 0
944 635 0
-945 -638 0
945 638 0
-946 -641 0
946 641 0
-947 -644 0
947 644 0
-948 -647 0
948 647 0
-949 -650 0
949 650 0
-950 -653 0
950 653 0
-951 -656 0
951 656 0
-952 -659 0
952 659 0
-953 -662 0
953 662 0
-954 -664 0
954 664 0
-955 -667 0
955 667 0
-956 -670 0
956 670 0
-957 -673 0
957 673 0
-958 -676 0
958 676 0
-959 -679 0
959 679 0
-960 -682 0
960 682 0
-961 -684 0
961 684 0
-962 -687 0
962 687 0
-963 -690 0
963 690 0
-964 -693 0
964 693 0
-965 -696 0
965 696 0
697 0
